1 2 3 4 5 6 7 8 9 10 11 12 13 14 15 16 17 18 19 20
16 9 19 17 18 10 5 15 1 11 12 6 13 7 2 4 8 20 3 14

16 9 19 17 18 5 1 11 12 6 13 7 2 4 8 10 20 3 14 15
16 19 9 18 10 17 5 15 1 11 12 6 13 2 4 8 3 20 14 7